(set-option :produce-models true); benchmark generated from python API
(set-info :status unknown)
(declare-fun l_1_0_9 () Real)
(declare-fun l_1_0_10 () Real)
(declare-fun _a_0_ () Real)
(declare-fun l_1_0_8 () Real)
(declare-fun l_1_0_7 () Real)
(declare-fun l_1_0_6 () Real)
(declare-fun l_1_0_5 () Real)
(declare-fun l_1_0_4 () Real)
(declare-fun l_1_0_3 () Real)
(declare-fun l_1_0_2 () Real)
(declare-fun l_1_0_1 () Real)
(declare-fun _a_1_ () Real)
(declare-fun l_1_0_14 () Real)
(declare-fun l_1_0_13 () Real)
(declare-fun l_1_0_12 () Real)
(declare-fun _a_2_ () Real)
(declare-fun l_1_0_11 () Real)
(declare-fun _a_3_ () Real)
(declare-fun _a_4_ () Real)
(declare-fun _a_5_ () Real)
(declare-fun l_1_1_9 () Real)
(declare-fun l_1_1_8 () Real)
(declare-fun l_1_1_7 () Real)
(declare-fun l_1_1_5 () Real)
(declare-fun l_1_1_3 () Real)
(declare-fun l_1_1_15 () Real)
(declare-fun l_1_1_14 () Real)
(declare-fun l_1_1_12 () Real)
(declare-fun l_1_1_11 () Real)
(declare-fun l_1_1_1 () Real)
(declare-fun l_1_1_6 () Real)
(declare-fun l_1_1_4 () Real)
(declare-fun l_1_1_2 () Real)
(declare-fun l_1_1_13 () Real)
(declare-fun l_1_1_10 () Real)
(declare-fun l_1_1_16 () Real)
(declare-fun l_1_1_20 () Real)
(declare-fun l_1_1_19 () Real)
(declare-fun l_1_1_18 () Real)
(declare-fun l_1_1_17 () Real)
(declare-fun l_1_2_19 () Real)
(declare-fun l_1_2_17 () Real)
(declare-fun l_1_2_18 () Real)
(declare-fun l_1_2_16 () Real)
(declare-fun l_1_2_12 () Real)
(declare-fun l_1_2_8 () Real)
(declare-fun l_1_2_7 () Real)
(declare-fun l_1_2_6 () Real)
(declare-fun l_1_2_5 () Real)
(declare-fun l_1_2_4 () Real)
(declare-fun l_1_2_9 () Real)
(declare-fun l_1_2_3 () Real)
(declare-fun l_1_2_13 () Real)
(declare-fun l_1_2_10 () Real)
(declare-fun l_1_2_2 () Real)
(declare-fun l_1_2_15 () Real)
(declare-fun l_1_2_14 () Real)
(declare-fun l_1_2_11 () Real)
(declare-fun l_1_2_1 () Real)
(declare-fun l_1_2_20 () Real)
(assert
 (= (- _a_0_ (* (* 2.0 l_1_0_10) l_1_0_9)) 0.0))
(assert
 (let ((?x1513 (* l_1_0_9 l_1_0_9)))
 (let ((?x1543 (- (- (- (- _a_1_ l_1_0_1) l_1_0_2) (* 1.0 l_1_0_3)) l_1_0_4)))
 (let ((?x1512 (- (- (- ?x1543 (* 1.0 l_1_0_5)) (* 1.0 l_1_0_6)) (* 1.0 l_1_0_7))))
 (= (- (- ?x1512 l_1_0_8) ?x1513) 0.0)))))
(assert
 (let ((?x1471 (* 2.0 l_1_0_3)))
 (let ((?x1317 (* l_1_0_14 l_1_0_14)))
 (let ((?x1318 (- (- (- _a_2_ (* l_1_0_12 l_1_0_12)) (* l_1_0_13 l_1_0_13)) ?x1317)))
 (= (+ (+ (+ (+ ?x1318 ?x1471) l_1_0_5) l_1_0_6) l_1_0_7) 0.0)))))
(assert
 (let ((?x1404 (- (- _a_3_ (* (* 2.0 l_1_0_10) l_1_0_12)) (* (* 2.0 l_1_0_11) l_1_0_13))))
 (= ?x1404 0.0)))
(assert
 (let ((?x1471 (* 2.0 l_1_0_3)))
 (let ((?x1355 (+ (- (- _a_4_ (* l_1_0_10 l_1_0_10)) (* l_1_0_11 l_1_0_11)) ?x1471)))
 (= (+ (+ (+ ?x1355 l_1_0_5) l_1_0_6) l_1_0_7) 0.0))))
(assert
 (= (- _a_5_ (* (* 2.0 l_1_0_12) l_1_0_9)) 0.0))
(assert
 (= (- l_1_0_3) 0.0))
(assert
 (= (* (- 2.0) l_1_0_3) 0.0))
(assert
 (= (- l_1_0_3) 0.0))
(assert
 (>= l_1_0_1 0.0))
(assert
 (>= l_1_0_2 0.0))
(assert
 (>= l_1_0_3 0.0))
(assert
 (>= l_1_0_4 0.0))
(assert
 (>= l_1_0_5 0.0))
(assert
 (>= l_1_0_6 0.0))
(assert
 (>= l_1_0_7 0.0))
(assert
 (>= l_1_0_8 0.0))
(assert
 (>= l_1_0_9 0.0))
(assert
 (>= l_1_0_11 0.0))
(assert
 (>= l_1_0_14 0.0))
(assert
 (let ((?x1141 (* 3.0 l_1_1_8)))
 (let ((?x1138 (* 3.0 l_1_1_5)))
 (let ((?x1219 (* 3.0 l_1_1_3)))
 (let ((?x1023 (* l_1_1_15 l_1_1_15)))
 (let ((?x1214 (* 9.0 l_1_1_11)))
 (let ((?x1209 (* _a_1_ l_1_1_4)))
 (let ((?x1207 (* _a_1_ l_1_1_2)))
 (let ((?x1208 (- (+ (* (- _a_1_) l_1_1_10) (* (* 3.0 _a_1_) l_1_1_13)) ?x1207)))
 (let ((?x1215 (- (- (+ (- ?x1208 ?x1209) (* (* 3.0 _a_1_) l_1_1_6)) l_1_1_1) ?x1214)))
 (let ((?x1140 (- (+ (+ (- (- (- ?x1215 l_1_1_12) l_1_1_14) ?x1023) ?x1219) ?x1138) l_1_1_7)))
 (= (+ (- (+ ?x1140 ?x1141) (* (* l_1_1_9 _a_1_) _a_1_)) 1.0) 0.0))))))))))))
(assert
 (let ((?x917 (* _a_0_ l_1_1_4)))
 (let ((?x910 (* _a_0_ l_1_1_2)))
 (let ((?x1029 (* _a_0_ l_1_1_10)))
 (let ((?x909 (+ (- (* (* (* (- 2.0) _a_0_) _a_1_) l_1_1_9) ?x1029) (* (* 3.0 _a_0_) l_1_1_13))))
 (let ((?x926 (- (+ (- (- ?x909 ?x910) ?x917) (* (* 3.0 _a_0_) l_1_1_6)) (* (* 2.0 l_1_1_15) l_1_1_16))))
 (= (+ ?x926 1.0) 0.0)))))))
(assert
 (let ((?x885 (* l_1_1_20 l_1_1_20)))
 (let ((?x411 (* l_1_1_19 l_1_1_19)))
 (let ((?x408 (* l_1_1_18 l_1_1_18)))
 (let ((?x24 (* 6.0 l_1_1_11)))
 (let ((?x23 (* _a_2_ l_1_1_4)))
 (let ((?x395 (+ (- (- (* (- _a_2_) l_1_1_10) (* _a_2_ l_1_1_2)) ?x23) ?x24)))
 (let ((?x884 (- (- (- ?x395 (* l_1_1_13 (- _a_1_ (* 3.0 _a_2_)))) ?x408) ?x411)))
 (let ((?x449 (- (- (- (- ?x884 ?x885) l_1_1_3) l_1_1_5) (* l_1_1_6 (- _a_1_ (* 3.0 _a_2_))))))
 (let ((?x567 (- (- ?x449 l_1_1_8) (* l_1_1_9 (+ (* (* 2.0 _a_1_) _a_2_) (* _a_5_ _a_5_))))))
 (= (- ?x567 (/ 1.0 5.0)) 0.0)))))))))))
(assert
 (let ((?x403 (+ (* (* 2.0 _a_0_) _a_5_) (* (* 2.0 _a_1_) _a_3_))))
 (let ((?x466 (* _a_3_ l_1_1_4)))
 (let ((?x36 (* _a_3_ l_1_1_2)))
 (let ((?x465 (- (+ (* (- _a_3_) l_1_1_10) (* (* 3.0 _a_3_) l_1_1_13)) ?x36)))
 (let ((?x471 (- (+ (- ?x465 ?x466) (* (* 3.0 _a_3_) l_1_1_6)) (* (* 2.0 l_1_1_16) l_1_1_18))))
 (= (- (- ?x471 (* (* 2.0 l_1_1_17) l_1_1_19)) (* l_1_1_9 ?x403)) 0.0)))))))
(assert
 (let ((?x249 (* l_1_1_17 l_1_1_17)))
 (let ((?x164 (* l_1_1_16 l_1_1_16)))
 (let ((?x24 (* 6.0 l_1_1_11)))
 (let ((?x258 (* _a_4_ l_1_1_4)))
 (let ((?x160 (+ (- (- (* (- _a_4_) l_1_1_10) (* _a_4_ l_1_1_2)) ?x258) ?x24)))
 (let ((?x204 (- (- (- ?x160 (* l_1_1_13 (- _a_1_ (* 3.0 _a_4_)))) ?x164) ?x249)))
 (let ((?x60 (- (- (- ?x204 l_1_1_3) l_1_1_5) (* l_1_1_6 (- _a_1_ (* 3.0 _a_4_))))))
 (let ((?x145 (- (- ?x60 l_1_1_8) (* l_1_1_9 (+ (* _a_0_ _a_0_) (* (* 2.0 _a_1_) _a_4_))))))
 (= ?x145 0.0))))))))))
(assert
 (let ((?x1153 (* _a_5_ l_1_1_4)))
 (let ((?x489 (* _a_5_ l_1_1_2)))
 (let ((?x474 (* _a_5_ l_1_1_10)))
 (let ((?x488 (+ (- (* (* (* (- 2.0) _a_1_) _a_5_) l_1_1_9) ?x474) (* (* 3.0 _a_5_) l_1_1_13))))
 (let ((?x1161 (- (+ (- (- ?x488 ?x489) ?x1153) (* (* 3.0 _a_5_) l_1_1_6)) (* (* 2.0 l_1_1_15) l_1_1_18))))
 (= ?x1161 0.0)))))))
(assert
 (let ((?x1100 (+ (* (* 2.0 _a_0_) _a_2_) (* (* 2.0 _a_3_) _a_5_))))
 (let ((?x1099 (- (- (* (- _a_0_) l_1_1_13) (* _a_0_ l_1_1_6)) (* l_1_1_9 ?x1100))))
 (= ?x1099 0.0))))
(assert
 (let ((?x37 (* _a_0_ l_1_1_6)))
 (let ((?x934 (* _a_0_ l_1_1_13)))
 (= (- (- (* (* (* (- 2.0) _a_0_) _a_4_) l_1_1_9) ?x934) ?x37) 0.0))))
(assert
 (let ((?x749 (- (- (- (* (- _a_2_) l_1_1_13) (* _a_2_ l_1_1_6)) l_1_1_11) (* (* l_1_1_9 _a_2_) _a_2_))))
 (= ?x749 0.0)))
(assert
 (let ((?x578 (- (- (* (- 2.0) l_1_1_11) (* l_1_1_13 (+ _a_2_ _a_4_))) (* l_1_1_6 (+ _a_2_ _a_4_)))))
 (let ((?x971 (- ?x578 (* l_1_1_9 (+ (* (* 2.0 _a_2_) _a_4_) (* _a_3_ _a_3_))))))
 (= ?x971 0.0))))
(assert
 (let ((?x333 (* _a_3_ l_1_1_6)))
 (let ((?x410 (* _a_3_ l_1_1_13)))
 (= (- (- (* (* (* (- 2.0) _a_2_) _a_3_) l_1_1_9) ?x410) ?x333) 0.0))))
(assert
 (let ((?x333 (* _a_3_ l_1_1_6)))
 (let ((?x410 (* _a_3_ l_1_1_13)))
 (= (- (- (* (* (* (- 2.0) _a_3_) _a_4_) l_1_1_9) ?x410) ?x333) 0.0))))
(assert
 (let ((?x821 (- (- (- (* (- _a_4_) l_1_1_13) (* _a_4_ l_1_1_6)) l_1_1_11) (* (* l_1_1_9 _a_4_) _a_4_))))
 (= ?x821 0.0)))
(assert
 (let ((?x1358 (* _a_5_ l_1_1_6)))
 (let ((?x622 (* _a_5_ l_1_1_13)))
 (= (- (- (* (* (* (- 2.0) _a_2_) _a_5_) l_1_1_9) ?x622) ?x1358) 0.0))))
(assert
 (let ((?x799 (+ (* (* 2.0 _a_0_) _a_3_) (* (* 2.0 _a_4_) _a_5_))))
 (let ((?x801 (- (- (* (- _a_5_) l_1_1_13) (* _a_5_ l_1_1_6)) (* l_1_1_9 ?x799))))
 (= ?x801 0.0))))
(assert
 (>= l_1_1_1 0.0))
(assert
 (>= l_1_1_2 0.0))
(assert
 (>= l_1_1_3 0.0))
(assert
 (>= l_1_1_4 0.0))
(assert
 (>= l_1_1_5 0.0))
(assert
 (>= l_1_1_6 0.0))
(assert
 (>= l_1_1_7 0.0))
(assert
 (>= l_1_1_8 0.0))
(assert
 (>= l_1_1_9 0.0))
(assert
 (>= l_1_1_10 0.0))
(assert
 (>= l_1_1_11 0.0))
(assert
 (>= l_1_1_12 0.0))
(assert
 (>= l_1_1_13 0.0))
(assert
 (>= l_1_1_14 0.0))
(assert
 (>= l_1_1_15 0.0))
(assert
 (>= l_1_1_17 0.0))
(assert
 (>= l_1_1_20 0.0))
(assert
 (let ((?x403 (+ (* (* 2.0 _a_0_) _a_5_) (* (* 2.0 _a_1_) _a_3_))))
 (let ((?x417 (* 4.0 _a_4_)))
 (let ((?x1095 (* 2.0 _a_3_)))
 (let ((?x380 (* _a_3_ l_1_2_8)))
 (let ((?x589 (* _a_3_ l_1_2_6)))
 (let ((?x605 (- (- (* 2.0 _a_0_) (* _a_3_ l_1_2_4)) (* (* 3.0 _a_3_) l_1_2_5))))
 (let ((?x436 (- (- (- (- ?x605 ?x589) (* (* 3.0 _a_3_) l_1_2_7)) ?x380) ?x1095)))
 (let ((?x429 (- (- (+ ?x436 ?x417) (* l_1_2_12 ?x403)) (* (* 2.0 l_1_2_16) l_1_2_18))))
 (= (- ?x429 (* (* 2.0 l_1_2_17) l_1_2_19)) 0.0))))))))))
(assert
 (let ((?x576 (* 6.0 l_1_2_3)))
 (let ((?x312 (* l_1_2_17 l_1_2_17)))
 (let ((?x315 (* l_1_2_16 l_1_2_16)))
 (let ((?x805 (* 2.0 _a_4_)))
 (let ((?x1326 (* _a_4_ l_1_2_8)))
 (let ((?x1332 (* _a_4_ l_1_2_6)))
 (let ((?x1333 (- (- (- (+ _a_0_ _a_2_) (* 1.0 _a_3_)) (* _a_4_ l_1_2_4)) ?x1332)))
 (let ((?x134 (- (+ (+ (- ?x1333 ?x1326) ?x805) l_1_2_10) (* l_1_2_12 (+ (* _a_0_ _a_0_) (* (* 2.0 _a_1_) _a_4_))))))
 (let ((?x1220 (- (+ (- (- (+ ?x134 l_1_2_13) ?x315) ?x312) ?x576) (* l_1_2_5 (+ (- _a_1_) (* 3.0 _a_4_))))))
 (let ((?x1223 (+ (- ?x1220 (* l_1_2_7 (+ (- _a_1_) (* 3.0 _a_4_)))) l_1_2_9)))
 (= ?x1223 0.0))))))))))))
(assert
 (let ((?x1432 (* 3.0 l_1_2_9)))
 (let ((?x522 (* 9.0 l_1_2_3)))
 (let ((?x524 (* l_1_2_15 l_1_2_15)))
 (let ((?x1134 (* 3.0 l_1_2_13)))
 (let ((?x1248 (* 3.0 l_1_2_10)))
 (let ((?x1066 (* 1.0 _a_3_)))
 (let ((?x369 (* _a_1_ l_1_2_8)))
 (let ((?x500 (* _a_1_ l_1_2_6)))
 (let ((?x508 (- (- (* 1.0 _a_0_) (* _a_1_ l_1_2_4)) (* (* 3.0 _a_1_) l_1_2_5))))
 (let ((?x364 (+ (- (- (- ?x508 ?x500) (* (* 3.0 _a_1_) l_1_2_7)) ?x369) _a_1_)))
 (let ((?x760 (- (+ (- (+ ?x364 (* 1.0 _a_2_)) ?x1066) (* 1.0 _a_4_)) (* 1.0 _a_5_))))
 (let ((?x1133 (- (- (- (- ?x760 l_1_2_1) ?x1248) l_1_2_11) (* (* l_1_2_12 _a_1_) _a_1_))))
 (let ((?x1433 (- (- (- (- (- (- ?x1133 ?x1134) l_1_2_14) ?x524) l_1_2_2) ?x522) ?x1432)))
 (= ?x1433 0.0)))))))))))))))
(assert
 (let ((?x1044 (- (+ (+ (* _a_2_ l_1_2_5) (* _a_2_ l_1_2_7)) _a_2_) (* (* l_1_2_12 _a_2_) _a_2_))))
 (= (- ?x1044 l_1_2_3) 0.0)))
(assert
 (let ((?x1100 (+ (* (* 2.0 _a_0_) _a_2_) (* (* 2.0 _a_3_) _a_5_))))
 (let ((?x581 (* 2.0 _a_2_)))
 (let ((?x994 (- (+ (+ (* _a_0_ l_1_2_5) (* _a_0_ l_1_2_7)) ?x581) (* l_1_2_12 ?x1100))))
 (= ?x994 0.0)))))
(assert
 (let ((?x576 (* 6.0 l_1_2_3)))
 (let ((?x673 (* l_1_2_20 l_1_2_20)))
 (let ((?x1266 (* l_1_2_19 l_1_2_19)))
 (let ((?x1265 (* l_1_2_18 l_1_2_18)))
 (let ((?x1066 (* 1.0 _a_3_)))
 (let ((?x581 (* 2.0 _a_2_)))
 (let ((?x1169 (* _a_2_ l_1_2_8)))
 (let ((?x866 (- (- (- (* (- _a_2_) l_1_2_4) (* _a_2_ l_1_2_6)) ?x1169) ?x581)))
 (let ((?x216 (- (+ (+ (+ ?x866 ?x1066) _a_5_) l_1_2_10) (* l_1_2_12 (+ (* (* 2.0 _a_1_) _a_2_) (* _a_5_ _a_5_))))))
 (let ((?x680 (- (+ (- (- (- (+ ?x216 l_1_2_13) ?x1265) ?x1266) ?x673) ?x576) (* l_1_2_5 (+ (- _a_1_) (* 3.0 _a_2_))))))
 (let ((?x684 (+ (- ?x680 (* l_1_2_7 (+ (- _a_1_) (* 3.0 _a_2_)))) l_1_2_9)))
 (= ?x684 0.0)))))))))))))
(assert
 (let ((?x1066 (* 1.0 _a_3_)))
 (let ((?x581 (* 2.0 _a_2_)))
 (let ((?x1151 (* _a_0_ l_1_2_8)))
 (let ((?x983 (* _a_0_ l_1_2_6)))
 (let ((?x1549 (* _a_0_ l_1_2_4)))
 (let ((?x982 (- (- (* (* (* (- 2.0) _a_0_) _a_1_) l_1_2_12) ?x1549) (* (* 3.0 _a_0_) l_1_2_5))))
 (let ((?x1038 (- (- (- (- ?x982 ?x983) (* (* 3.0 _a_0_) l_1_2_7)) ?x1151) ?x581)))
 (= (- (+ (+ ?x1038 ?x1066) _a_5_) (* (* 2.0 l_1_2_15) l_1_2_16)) 0.0)))))))))
(assert
 (let ((?x1095 (* 2.0 _a_3_)))
 (let ((?x1385 (* _a_3_ l_1_2_7)))
 (let ((?x954 (* _a_3_ l_1_2_5)))
 (let ((?x97 (+ (+ (+ (* (* (* (- 2.0) _a_2_) _a_3_) l_1_2_12) ?x954) ?x1385) ?x1095)))
 (= ?x97 0.0))))))
(assert
 (let ((?x360 (* 2.0 l_1_2_3)))
 (let ((?x417 (* 4.0 _a_4_)))
 (let ((?x950 (+ _a_3_ ?x417)))
 (let ((?x1442 (- ?x950 (* l_1_2_12 (+ (* (* 2.0 _a_2_) _a_4_) (* _a_3_ _a_3_))))))
 (let ((?x737 (- (- (- ?x1442 ?x360) (* l_1_2_5 (- (- _a_2_) _a_4_))) (* l_1_2_7 (- (- _a_2_) _a_4_)))))
 (= ?x737 0.0)))))))
(assert
 (let ((?x799 (+ (* (* 2.0 _a_0_) _a_3_) (* (* 2.0 _a_4_) _a_5_))))
 (let ((?x1004 (* _a_5_ l_1_2_7)))
 (let ((?x879 (- (+ (+ (* 2.0 _a_3_) (* _a_5_ l_1_2_5)) ?x1004) (* l_1_2_12 ?x799))))
 (= ?x879 0.0)))))
(assert
 (let ((?x768 (* _a_0_ l_1_2_7)))
 (let ((?x1325 (* _a_0_ l_1_2_5)))
 (let ((?x388 (+ (+ (+ (* (* (* (- 2.0) _a_0_) _a_4_) l_1_2_12) ?x1325) ?x768) _a_3_)))
 (= ?x388 0.0)))))
(assert
 (let ((?x417 (* 4.0 _a_4_)))
 (let ((?x1385 (* _a_3_ l_1_2_7)))
 (let ((?x954 (* _a_3_ l_1_2_5)))
 (let ((?x251 (+ (+ (+ (* (* (* (- 2.0) _a_3_) _a_4_) l_1_2_12) ?x954) ?x1385) ?x417)))
 (= ?x251 0.0))))))
(assert
 (let ((?x100 (- (+ (+ (* _a_4_ l_1_2_5) (* _a_4_ l_1_2_7)) _a_4_) (* (* l_1_2_12 _a_4_) _a_4_))))
 (= (- ?x100 l_1_2_3) 0.0)))
(assert
 (let ((?x1575 (* _a_5_ l_1_2_8)))
 (let ((?x71 (* _a_5_ l_1_2_6)))
 (let ((?x75 (* _a_5_ l_1_2_4)))
 (let ((?x72 (- (- (* (* (* (- 2.0) _a_1_) _a_5_) l_1_2_12) ?x75) (* (* 3.0 _a_5_) l_1_2_5))))
 (let ((?x1578 (- (- (- (- ?x72 ?x71) (* (* 3.0 _a_5_) l_1_2_7)) ?x1575) (* (* 2.0 l_1_2_15) l_1_2_18))))
 (= ?x1578 0.0)))))))
(assert
 (let ((?x1004 (* _a_5_ l_1_2_7)))
 (let ((?x1113 (* _a_5_ l_1_2_5)))
 (= (+ (+ (* (* (* (- 2.0) _a_2_) _a_5_) l_1_2_12) ?x1113) ?x1004) 0.0))))
(assert
 (>= l_1_2_1 0.0))
(assert
 (>= l_1_2_2 0.0))
(assert
 (>= l_1_2_3 0.0))
(assert
 (>= l_1_2_4 0.0))
(assert
 (>= l_1_2_5 0.0))
(assert
 (>= l_1_2_6 0.0))
(assert
 (>= l_1_2_7 0.0))
(assert
 (>= l_1_2_8 0.0))
(assert
 (>= l_1_2_9 0.0))
(assert
 (>= l_1_2_10 0.0))
(assert
 (>= l_1_2_11 0.0))
(assert
 (>= l_1_2_12 0.0))
(assert
 (>= l_1_2_13 0.0))
(assert
 (>= l_1_2_14 0.0))
(assert
 (>= l_1_2_15 0.0))
(assert
 (>= l_1_2_17 0.0))
(assert
 (>= l_1_2_20 0.0))
(check-sat)
(get-model)